c solution = True
p edge 1000 999
e 2 1 1
e 19 1 1
e 23 1 1
e 34 1 1
e 46 1 1
e 90 1 1
e 158 1 1
e 206 1 1
e 412 1 1
e 424 1 1
e 711 1 1
e 568 424 1
e 160 158 1
e 255 158 1
e 507 158 1
e 425 255 1
e 552 255 1
e 199 160 1
e 367 199 1
e 251 90 1
e 299 90 1
e 325 90 1
e 331 90 1
e 402 90 1
e 339 325 1
e 709 339 1
e 306 299 1
e 316 299 1
e 329 299 1
e 442 299 1
e 587 329 1
e 607 329 1
e 625 607 1
e 779 625 1
e 896 625 1
e 446 316 1
e 454 316 1
e 315 251 1
e 369 251 1
e 376 251 1
e 495 251 1
e 693 251 1
e 753 693 1
e 853 753 1
e 606 495 1
e 720 606 1
e 940 606 1
e 980 940 1
e 914 720 1
e 438 376 1
e 481 376 1
e 490 376 1
e 498 490 1
e 946 490 1
e 508 498 1
e 824 498 1
e 837 498 1
e 849 837 1
e 889 837 1
e 906 889 1
e 983 889 1
e 994 889 1
e 962 849 1
e 563 508 1
e 749 508 1
e 758 508 1
e 874 508 1
e 933 508 1
e 969 933 1
e 945 758 1
e 890 749 1
e 959 890 1
e 667 563 1
e 721 667 1
e 544 481 1
e 577 481 1
e 593 481 1
e 777 544 1
e 805 777 1
e 521 438 1
e 613 438 1
e 892 438 1
e 528 521 1
e 560 521 1
e 622 521 1
e 870 521 1
e 924 521 1
e 922 560 1
e 658 528 1
e 731 658 1
e 767 658 1
e 864 658 1
e 865 658 1
e 868 865 1
e 757 731 1
e 815 731 1
e 956 815 1
e 885 757 1
e 567 369 1
e 718 369 1
e 847 369 1
e 915 718 1
e 571 567 1
e 585 567 1
e 665 585 1
e 678 665 1
e 793 678 1
e 803 678 1
e 829 793 1
e 901 793 1
e 932 793 1
e 952 793 1
e 324 315 1
e 333 315 1
e 451 315 1
e 487 315 1
e 551 315 1
e 574 315 1
e 800 315 1
e 905 315 1
e 927 800 1
e 525 487 1
e 705 487 1
e 875 525 1
e 478 324 1
e 518 478 1
e 68 46 1
e 81 46 1
e 280 46 1
e 93 81 1
e 267 93 1
e 157 68 1
e 275 157 1
e 557 275 1
e 619 275 1
e 770 619 1
e 116 34 1
e 110 23 1
e 176 23 1
e 133 110 1
e 350 133 1
e 443 350 1
e 558 443 1
e 701 558 1
e 823 558 1
e 155 19 1
e 3 2 1
e 98 2 1
e 128 98 1
e 141 98 1
e 249 98 1
e 279 128 1
e 592 128 1
e 925 592 1
e 410 279 1
e 464 279 1
e 603 464 1
e 4 3 1
e 39 3 1
e 51 3 1
e 66 51 1
e 72 51 1
e 82 72 1
e 177 72 1
e 321 177 1
e 504 177 1
e 365 321 1
e 663 321 1
e 426 365 1
e 450 365 1
e 534 365 1
e 594 365 1
e 627 534 1
e 503 426 1
e 692 503 1
e 86 82 1
e 115 82 1
e 143 82 1
e 102 86 1
e 209 86 1
e 353 86 1
e 664 353 1
e 486 209 1
e 733 209 1
e 118 102 1
e 291 102 1
e 349 102 1
e 614 102 1
e 447 349 1
e 501 349 1
e 591 447 1
e 612 447 1
e 774 447 1
e 887 447 1
e 936 447 1
e 363 118 1
e 414 118 1
e 382 363 1
e 715 363 1
e 499 382 1
e 500 382 1
e 796 500 1
e 668 499 1
e 744 499 1
e 884 668 1
e 71 66 1
e 196 71 1
e 211 71 1
e 103 39 1
e 213 39 1
e 104 103 1
e 142 103 1
e 318 103 1
e 452 318 1
e 536 452 1
e 600 536 1
e 5 4 1
e 8 4 1
e 22 4 1
e 26 4 1
e 30 4 1
e 38 30 1
e 53 30 1
e 79 53 1
e 91 53 1
e 295 91 1
e 418 91 1
e 769 418 1
e 301 295 1
e 200 79 1
e 411 79 1
e 477 79 1
e 727 411 1
e 929 411 1
e 281 200 1
e 366 200 1
e 393 281 1
e 54 38 1
e 120 38 1
e 277 120 1
e 460 277 1
e 140 54 1
e 56 26 1
e 250 26 1
e 327 250 1
e 377 327 1
e 550 327 1
e 635 550 1
e 821 550 1
e 907 550 1
e 633 377 1
e 641 377 1
e 37 22 1
e 43 22 1
e 100 22 1
e 114 22 1
e 468 114 1
e 156 100 1
e 78 43 1
e 166 78 1
e 174 78 1
e 63 37 1
e 97 37 1
e 193 37 1
e 271 37 1
e 130 97 1
e 154 97 1
e 238 97 1
e 263 97 1
e 311 263 1
e 326 311 1
e 352 311 1
e 338 326 1
e 700 326 1
e 783 700 1
e 413 338 1
e 923 338 1
e 581 413 1
e 288 154 1
e 527 154 1
e 841 154 1
e 449 288 1
e 775 288 1
e 842 775 1
e 162 130 1
e 188 130 1
e 224 188 1
e 289 188 1
e 168 162 1
e 192 168 1
e 195 168 1
e 218 168 1
e 244 168 1
e 589 168 1
e 335 244 1
e 298 218 1
e 340 298 1
e 361 298 1
e 274 195 1
e 302 195 1
e 488 302 1
e 285 274 1
e 355 274 1
e 462 274 1
e 629 274 1
e 479 462 1
e 681 462 1
e 386 355 1
e 497 386 1
e 510 386 1
e 555 510 1
e 561 510 1
e 580 510 1
e 674 510 1
e 741 674 1
e 782 674 1
e 739 561 1
e 67 63 1
e 127 63 1
e 139 63 1
e 186 63 1
e 260 63 1
e 328 63 1
e 416 63 1
e 634 416 1
e 278 186 1
e 578 278 1
e 173 139 1
e 135 127 1
e 146 127 1
e 178 127 1
e 259 127 1
e 286 259 1
e 297 259 1
e 381 259 1
e 389 259 1
e 566 259 1
e 862 566 1
e 942 862 1
e 957 862 1
e 493 389 1
e 422 381 1
e 341 297 1
e 400 297 1
e 631 341 1
e 695 341 1
e 760 341 1
e 834 341 1
e 846 341 1
e 910 341 1
e 843 834 1
e 869 760 1
e 877 760 1
e 710 695 1
e 723 695 1
e 717 710 1
e 747 710 1
e 903 710 1
e 764 717 1
e 795 717 1
e 871 717 1
e 912 764 1
e 632 631 1
e 776 631 1
e 317 286 1
e 344 286 1
e 354 286 1
e 370 286 1
e 401 286 1
e 549 286 1
e 405 401 1
e 708 405 1
e 429 370 1
e 436 429 1
e 523 429 1
e 539 523 1
e 542 523 1
e 639 539 1
e 541 436 1
e 444 354 1
e 626 354 1
e 662 354 1
e 808 662 1
e 883 626 1
e 854 444 1
e 872 444 1
e 886 854 1
e 383 344 1
e 428 344 1
e 873 178 1
e 202 146 1
e 212 146 1
e 526 146 1
e 440 212 1
e 893 212 1
e 509 440 1
e 736 440 1
e 675 509 1
e 378 202 1
e 679 202 1
e 740 202 1
e 397 378 1
e 138 135 1
e 145 135 1
e 236 135 1
e 252 145 1
e 653 145 1
e 265 252 1
e 336 252 1
e 385 252 1
e 579 385 1
e 640 579 1
e 694 640 1
e 881 640 1
e 771 694 1
e 791 694 1
e 380 336 1
e 535 336 1
e 866 336 1
e 466 380 1
e 347 265 1
e 357 265 1
e 648 265 1
e 786 648 1
e 787 648 1
e 423 347 1
e 471 347 1
e 475 347 1
e 524 471 1
e 621 471 1
e 792 524 1
e 191 138 1
e 219 138 1
e 268 138 1
e 296 268 1
e 373 268 1
e 379 268 1
e 719 268 1
e 908 719 1
e 944 719 1
e 437 373 1
e 461 373 1
e 469 373 1
e 852 373 1
e 917 373 1
e 897 852 1
e 961 852 1
e 968 961 1
e 997 968 1
e 996 897 1
e 570 469 1
e 971 570 1
e 993 971 1
e 998 993 1
e 520 461 1
e 597 461 1
e 816 461 1
e 819 461 1
e 949 819 1
e 1000 949 1
e 572 520 1
e 610 520 1
e 666 610 1
e 785 610 1
e 928 610 1
e 947 610 1
e 977 947 1
e 807 785 1
e 861 785 1
e 958 785 1
e 673 666 1
e 754 666 1
e 902 666 1
e 921 902 1
e 938 921 1
e 973 938 1
e 840 754 1
e 773 572 1
e 781 572 1
e 913 572 1
e 950 572 1
e 818 781 1
e 822 781 1
e 882 781 1
e 926 781 1
e 982 926 1
e 895 882 1
e 899 882 1
e 967 822 1
e 937 818 1
e 833 773 1
e 474 437 1
e 670 437 1
e 738 437 1
e 406 296 1
e 659 406 1
e 909 659 1
e 283 219 1
e 9 8 1
e 13 8 1
e 49 13 1
e 6 5 1
e 7 5 1
e 11 5 1
e 17 5 1
e 35 5 1
e 95 5 1
e 153 5 1
e 172 5 1
e 36 35 1
e 25 17 1
e 27 17 1
e 32 17 1
e 41 17 1
e 48 17 1
e 44 41 1
e 64 41 1
e 84 44 1
e 105 44 1
e 204 44 1
e 494 44 1
e 108 105 1
e 270 105 1
e 348 108 1
e 163 84 1
e 208 84 1
e 112 32 1
e 15 11 1
e 31 15 1
e 52 15 1
e 70 15 1
e 119 15 1
e 435 15 1
e 167 119 1
e 76 31 1
e 83 31 1
e 106 31 1
e 233 106 1
e 282 106 1
e 392 282 1
e 458 392 1
e 588 392 1
e 472 458 1
e 538 458 1
e 904 458 1
e 554 472 1
e 683 554 1
e 246 233 1
e 972 233 1
e 269 246 1
e 309 269 1
e 337 269 1
e 650 269 1
e 522 337 1
e 390 309 1
e 434 309 1
e 430 390 1
e 602 390 1
e 94 83 1
e 375 83 1
e 431 375 1
e 439 375 1
e 545 375 1
e 643 375 1
e 672 545 1
e 814 439 1
e 470 431 1
e 562 470 1
e 759 470 1
e 934 470 1
e 216 94 1
e 272 94 1
e 540 94 1
e 293 216 1
e 529 216 1
e 722 529 1
e 308 293 1
e 388 293 1
e 148 76 1
e 228 148 1
e 241 228 1
e 245 241 1
e 284 241 1
e 359 284 1
e 10 6 1
e 12 6 1
e 20 6 1
e 129 6 1
e 24 20 1
e 33 20 1
e 55 20 1
e 419 20 1
e 197 55 1
e 69 33 1
e 80 69 1
e 165 69 1
e 530 69 1
e 181 165 1
e 273 165 1
e 395 165 1
e 467 165 1
e 190 181 1
e 101 80 1
e 134 101 1
e 187 101 1
e 320 101 1
e 334 101 1
e 371 334 1
e 374 371 1
e 408 371 1
e 483 408 1
e 372 320 1
e 203 187 1
e 240 187 1
e 314 187 1
e 322 314 1
e 496 314 1
e 660 496 1
e 976 496 1
e 990 976 1
e 812 660 1
e 876 812 1
e 455 322 1
e 850 322 1
e 564 455 1
e 752 564 1
e 215 203 1
e 220 203 1
e 476 203 1
e 226 220 1
e 254 215 1
e 170 134 1
e 235 134 1
e 253 134 1
e 290 134 1
e 303 290 1
e 330 290 1
e 304 303 1
e 403 303 1
e 789 303 1
e 332 304 1
e 457 304 1
e 537 304 1
e 609 304 1
e 642 609 1
e 677 609 1
e 735 537 1
e 778 537 1
e 690 457 1
e 714 690 1
e 851 690 1
e 728 714 1
e 879 714 1
e 954 879 1
e 502 332 1
e 556 332 1
e 616 332 1
e 680 332 1
e 935 680 1
e 685 616 1
e 656 556 1
e 703 556 1
e 746 556 1
e 788 746 1
e 894 746 1
e 981 746 1
e 939 894 1
e 991 939 1
e 964 788 1
e 999 788 1
e 797 703 1
e 891 703 1
e 697 656 1
e 755 697 1
e 813 697 1
e 820 697 1
e 941 697 1
e 988 941 1
e 590 502 1
e 608 502 1
e 686 608 1
e 745 686 1
e 838 686 1
e 900 838 1
e 919 900 1
e 953 900 1
e 307 253 1
e 432 253 1
e 505 432 1
e 512 432 1
e 661 512 1
e 844 512 1
e 716 661 1
e 836 716 1
e 323 307 1
e 404 307 1
e 415 307 1
e 647 307 1
e 599 415 1
e 918 415 1
e 920 918 1
e 948 920 1
e 955 920 1
e 978 948 1
e 984 948 1
e 646 599 1
e 445 404 1
e 515 445 1
e 441 323 1
e 730 323 1
e 806 323 1
e 506 441 1
e 584 441 1
e 595 441 1
e 654 441 1
e 762 441 1
e 763 441 1
e 965 762 1
e 979 762 1
e 671 506 1
e 489 170 1
e 28 24 1
e 42 24 1
e 45 24 1
e 125 24 1
e 169 24 1
e 222 24 1
e 107 45 1
e 171 45 1
e 59 42 1
e 61 59 1
e 77 59 1
e 65 61 1
e 85 61 1
e 124 85 1
e 152 85 1
e 205 85 1
e 175 124 1
e 183 124 1
e 223 183 1
e 356 183 1
e 888 223 1
e 189 175 1
e 364 175 1
e 229 189 1
e 394 229 1
e 433 229 1
e 465 229 1
e 553 229 1
e 559 229 1
e 586 229 1
e 729 586 1
e 713 553 1
e 859 553 1
e 831 465 1
e 453 433 1
e 485 453 1
e 74 65 1
e 88 65 1
e 126 65 1
e 150 65 1
e 421 65 1
e 368 126 1
e 96 88 1
e 184 88 1
e 214 88 1
e 234 88 1
e 482 88 1
e 637 234 1
e 684 234 1
e 399 184 1
e 121 96 1
e 137 121 1
e 242 121 1
e 517 121 1
e 391 242 1
e 185 74 1
e 266 74 1
e 427 74 1
e 573 74 1
e 611 74 1
e 857 74 1
e 651 573 1
e 734 651 1
e 845 651 1
e 772 734 1
e 931 734 1
e 943 734 1
e 951 943 1
e 669 427 1
e 342 266 1
e 726 342 1
e 227 185 1
e 459 185 1
e 546 459 1
e 712 459 1
e 725 712 1
e 826 712 1
e 780 725 1
e 916 725 1
e 966 780 1
e 598 546 1
e 784 598 1
e 237 227 1
e 258 227 1
e 262 227 1
e 300 227 1
e 420 300 1
e 689 420 1
e 756 689 1
e 319 258 1
e 417 258 1
e 480 258 1
e 514 258 1
e 533 258 1
e 576 533 1
e 604 533 1
e 617 604 1
e 696 604 1
e 698 604 1
e 732 698 1
e 860 698 1
e 880 698 1
e 652 617 1
e 657 617 1
e 898 657 1
e 798 652 1
e 828 652 1
e 855 828 1
e 830 576 1
e 448 417 1
e 531 448 1
e 702 448 1
e 601 531 1
e 624 531 1
e 761 531 1
e 799 531 1
e 839 531 1
e 986 531 1
e 867 799 1
e 630 601 1
e 743 601 1
e 858 601 1
e 801 743 1
e 825 801 1
e 768 630 1
e 817 630 1
e 856 630 1
e 974 630 1
e 975 974 1
e 960 856 1
e 827 817 1
e 930 827 1
e 987 768 1
e 575 319 1
e 802 319 1
e 750 575 1
e 963 575 1
e 751 750 1
e 40 28 1
e 131 28 1
e 57 40 1
e 62 40 1
e 159 40 1
e 644 159 1
e 92 62 1
e 149 62 1
e 117 57 1
e 207 117 1
e 257 207 1
e 50 12 1
e 75 12 1
e 87 12 1
e 111 12 1
e 109 87 1
e 261 87 1
e 132 109 1
e 144 75 1
e 225 50 1
e 14 10 1
e 182 10 1
e 210 10 1
e 221 10 1
e 362 221 1
e 707 362 1
e 256 182 1
e 16 14 1
e 47 14 1
e 58 14 1
e 122 14 1
e 151 14 1
e 248 122 1
e 492 248 1
e 532 492 1
e 618 492 1
e 682 492 1
e 688 682 1
e 623 618 1
e 794 623 1
e 136 58 1
e 384 58 1
e 484 58 1
e 547 484 1
e 548 484 1
e 995 548 1
e 676 547 1
e 243 136 1
e 73 47 1
e 292 47 1
e 351 292 1
e 360 351 1
e 99 73 1
e 180 73 1
e 113 99 1
e 147 99 1
e 179 99 1
e 409 179 1
e 516 409 1
e 628 409 1
e 583 516 1
e 198 113 1
e 231 113 1
e 313 113 1
e 456 113 1
e 605 456 1
e 766 456 1
e 809 766 1
e 911 809 1
e 398 313 1
e 742 398 1
e 636 231 1
e 232 198 1
e 305 198 1
e 519 198 1
e 239 232 1
e 276 232 1
e 287 232 1
e 310 232 1
e 346 310 1
e 312 287 1
e 513 287 1
e 582 513 1
e 687 513 1
e 748 513 1
e 790 748 1
e 835 748 1
e 848 835 1
e 473 312 1
e 491 312 1
e 765 491 1
e 985 765 1
e 343 276 1
e 511 276 1
e 724 276 1
e 387 343 1
e 294 239 1
e 396 239 1
e 863 239 1
e 543 396 1
e 596 543 1
e 737 543 1
e 615 596 1
e 832 596 1
e 358 294 1
e 463 358 1
e 620 463 1
e 655 463 1
e 704 463 1
e 811 620 1
e 18 16 1
e 21 16 1
e 29 16 1
e 230 16 1
e 810 16 1
e 89 29 1
e 60 21 1
e 217 21 1
e 123 60 1
e 164 60 1
e 161 123 1
e 407 161 1
e 565 161 1
e 569 407 1
e 638 569 1
e 649 638 1
e 992 638 1
e 194 18 1
e 264 18 1
e 691 18 1
e 878 264 1
e 201 194 1
e 247 194 1
e 645 194 1
e 699 247 1
e 804 247 1
e 970 804 1
e 989 970 1
e 706 699 1
e 345 201 1
